p edge 30 39 20
v 4 5 13 15 28
v 2 6 29
v 1 12
v 2 16 22
v 1 25
v 2 7 17
v 2 18 21
v 1 30
v 2 8 27
v 1 10
v 1 4
v 2 11 23
v 1 20
v 2 2 3
v 1 1
v 1 24
v 1 26
v 1 19
v 1 14
v 1 9
e 1 13
e 1 28
e 1 29
e 2 18
e 2 29
e 3 30
e 5 7
e 5 26
e 6 9
e 8 11
e 8 14
e 8 20
e 9 21
e 9 26
e 10 19
e 11 24
e 11 27
e 12 14
e 12 15
e 12 23
e 13 22
e 13 25
e 13 29
e 14 21
e 14 22
e 14 28
e 15 18
e 15 22
e 15 23
e 16 24
e 16 30
e 17 19
e 18 22
e 19 21
e 23 28
e 23 29
e 24 26
e 25 28
e 26 27
